
******************************************************************************
This program contains Ipopt, a library for large-scale nonlinear optimization.
 Ipopt is released as open source code under the Eclipse Public License (EPL).
         For more information visit https://github.com/coin-or/Ipopt
******************************************************************************

This is Ipopt version 3.14.19, running with linear solver MUMPS 5.8.1.

Number of nonzeros in equality constraint Jacobian...:     4389
Number of nonzeros in inequality constraint Jacobian.:        0
Number of nonzeros in Lagrangian Hessian.............:     1050

Total number of variables............................:     1287
                     variables with only lower bounds:        0
                variables with lower and upper bounds:      457
                     variables with only upper bounds:        0
Total number of equality constraints.................:     1274
Total number of inequality constraints...............:        0
        inequality constraints with only lower bounds:        0
   inequality constraints with lower and upper bounds:        0
        inequality constraints with only upper bounds:        0

iter    objective    inf_pr   inf_du lg(mu)  ||d||  lg(rg) alpha_du alpha_pr  ls
   0  9.8565382e+00 9.66e+01 6.03e-04  -1.0 0.00e+00    -  0.00e+00 0.00e+00   0
   1  9.8640427e+00 2.16e+01 3.22e+01  -1.0 9.60e+01    -  2.30e-02 7.77e-01h  1
   2  9.8641467e+00 7.53e+00 1.14e+01  -1.0 2.09e+01    -  8.59e-01 6.51e-01f  1
   3  9.8701117e+00 1.71e+00 2.63e+00  -1.0 3.81e+00    -  6.78e-01 7.73e-01h  1
   4  9.8776165e+00 2.98e-01 7.40e-01  -1.0 2.79e+00    -  9.93e-01 8.57e-01h  1
   5  9.8629640e+00 6.74e-01 3.06e-03  -1.7 1.09e+00    -  1.00e+00 1.00e+00h  1
   6  9.8635085e+00 8.37e-02 1.60e-04  -1.7 9.09e-01    -  1.00e+00 1.00e+00h  1
   7  9.8629915e+00 9.39e-02 1.27e-04  -2.5 6.96e-01    -  1.00e+00 1.00e+00h  1
   8  9.8629188e+00 4.15e-04 1.99e-07  -2.5 1.28e-01    -  1.00e+00 1.00e+00h  1
   9  9.8625189e+00 3.11e-03 2.39e-02  -3.8 1.54e-01    -  7.93e-01 1.00e+00h  1
iter    objective    inf_pr   inf_du lg(mu)  ||d||  lg(rg) alpha_du alpha_pr  ls
  10  9.8553251e+00 1.62e-03 7.26e-03  -3.8 3.00e+00    -  3.65e-01 1.00e+00h  1
  11  9.8519419e+00 4.20e-04 5.58e-04  -3.8 1.63e+00    -  1.00e+00 1.00e+00h  1
  12  9.8481207e+00 5.47e-04 7.36e-04  -5.7 1.85e+00    -  7.73e-01 1.00e+00h  1
  13  9.8479965e+00 2.05e-04 2.71e-03  -5.7 1.31e-01    -  1.00e+00 6.27e-01h  1
  14  9.8479972e+00 1.18e-04 4.92e-02  -5.7 9.90e-03    -  1.00e+00 4.23e-01h  1
  15  9.8480078e+00 2.40e-09 3.15e-09  -5.7 1.69e-03    -  1.00e+00 1.00e+00f  1
  16  9.8480032e+00 8.45e-10 1.31e-02  -8.6 3.14e-03    -  1.00e+00 7.09e-01h  1
  17  9.8480030e+00 5.28e-11 1.54e-12  -8.6 7.97e-05    -  1.00e+00 1.00e+00f  1

Number of Iterations....: 17

                                   (scaled)                 (unscaled)
Objective...............:   9.8480030422590481e+00    9.8480030422590481e+00
Dual infeasibility......:   1.5364931549299854e-12    1.5364931549299854e-12
Constraint violation....:   5.2787108018044031e-11    5.2787108018044031e-11
Variable bound violation:   5.9836992857527877e-09    5.9836992857527877e-09
Complementarity.........:   2.5936553952304920e-09    2.5936553952304920e-09
Overall NLP error.......:   2.5936553952304920e-09    2.5936553952304920e-09


Number of objective function evaluations             = 18
Number of objective gradient evaluations             = 18
Number of equality constraint evaluations            = 18
Number of inequality constraint evaluations          = 0
Number of equality constraint Jacobian evaluations   = 18
Number of inequality constraint Jacobian evaluations = 0
Number of Lagrangian Hessian evaluations             = 17
Total seconds in IPOPT                               = 0.090

EXIT: Optimal Solution Found.
